Version identifier: 22.1.1.0 | 2022-11-28 | 9160aff4d
CPXPARAM_ClockType                               1
CPXPARAM_Read_DataCheck                          1
CPXPARAM_Threads                                 1
CPXPARAM_Simplex_Tolerances_Optimality           1.0000000000000001e-09
CPXPARAM_TimeLimit                               7200
CPXPARAM_MIP_Tolerances_AbsMIPGap                0
CPXPARAM_MIP_Tolerances_MIPGap                   0
CPXPARAM_MIP_Tolerances_Integrality              0
Tried aggregator 5 times.
MIQP Presolve eliminated 31250 rows and 1296 columns.
MIQP Presolve modified 698 coefficients.
Aggregator did 1053 substitutions.
Reduced MIQP has 19820 rows, 12231 columns, and 88896 nonzeros.
Reduced MIQP has 11619 binaries, 612 generals, 0 SOSs, and 0 indicators.
Reduced MIQP objective Q matrix has 612 nonzeros.
Presolve time = 0.17 sec. (123.34 ticks)
Probing time = 0.01 sec. (4.55 ticks)
Tried aggregator 1 time.
Reduced MIQP has 19820 rows, 12231 columns, and 88896 nonzeros.
Reduced MIQP has 11619 binaries, 612 generals, 0 SOSs, and 0 indicators.
Reduced MIQP objective Q matrix has 612 nonzeros.
Presolve time = 0.06 sec. (38.92 ticks)
Classifier predicts products in MIQP should be linearized.
Probing time = 0.01 sec. (4.45 ticks)
Clique table members: 2201.
MIP emphasis: balance optimality and feasibility.
MIP search method: dynamic search.
Parallel mode: none, using 1 thread.
Root relaxation solution time = 1382.31 sec. (789649.33 ticks)

        Nodes                                         Cuts/
   Node  Left     Objective  IInf  Best Integer    Best Bound    ItCnt     Gap

      0     0    infeasible                                      25051         

Root node processing (before b&c):
  Real time             = 1382.62 sec. (789856.15 ticks)
Sequential b&c:
  Real time             =    0.00 sec. (0.00 ticks)
                          ------------
Total (root+branch&cut) = 1382.62 sec. (789856.15 ticks)
Solution is infeasible.

---------------------
@@@ MIP_infeasible
Traceback (most recent call last):
  File "/scratch/scherif/DiverseSAT-journal_sup/DiverseSAT_Supplementary_Experiments/experiment-1/cplex/jobs/../solvers/CPLEX-QP-SE.py", line 118, in <module>
    print(f">>> Benchmark {os.path.basename(cnf_file)} k {k} OPT {int(prob.solution.get_objective_value())}"
  File "/users/scherif/.local/lib/python3.9/site-packages/cplex/_internal/_subinterfaces.py", line 7211, in get_objective_value
    return CPX_PROC.getobjval(self._env._e, self._cplex._lp)
  File "/users/scherif/.local/lib/python3.9/site-packages/cplex/_internal/_procedural.py", line 2055, in getobjval
    check_status(env, status)
  File "/users/scherif/.local/lib/python3.9/site-packages/cplex/_internal/_procedural.py", line 249, in __call__
    raise CplexSolverError(error_string, env, status)
cplex.exceptions.errors.CplexSolverError: CPLEX Error  1217: No solution exists.
